NAME : X-n979-k58
COMMENT : "Generated by Uchoa, Pecin, Pessoa, Poggi, Subramanian, and Vidal (2013)"
TYPE : CVRP
DIMENSION : 979
EDGE_WEIGHT_TYPE : EUC_2D
EDGE_WEIGHT_FORMAT : 
CAPACITY : 998
DISTANCE : 1.79769e+308
SERVICE_TIME : 0
NODE_COORD_SECTION
1 0 0
2 236 951
3 735 289
4 841 735
5 846 821
6 907 810
7 55 136
8 699 326
9 731 899
10 739 753
11 807 828
12 775 783
13 891 689
14 62 93
15 780 220
16 799 739
17 661 348
18 865 688
19 12 4
20 829 827
21 845 896
22 136 243
23 878 584
24 908 794
25 820 771
26 895 788
27 747 915
28 860 746
29 829 754
30 94 149
31 940 847
32 884 747
33 226 904
34 738 802
35 194 98
36 789 744
37 929 895
38 864 696
39 84 161
40 764 615
41 283 937
42 776 807
43 877 427
44 828 266
45 297 994
46 665 900
47 15 93
48 100 956
49 850 790
50 854 794
51 898 679
52 948 888
53 731 282
54 60 87
55 826 362
56 716 264
57 885 814
58 932 825
59 308 926
60 225 130
61 853 861
62 794 753
63 771 729
64 264 853
65 780 693
66 837 723
67 895 849
68 746 715
69 736 862
70 734 730
71 616 228
72 7 80
73 93 860
74 860 765
75 877 734
76 819 798
77 706 922
78 861 714
79 710 149
80 268 903
81 783 808
82 811 865
83 231 950
84 929 771
85 717 857
86 767 755
87 250 924
88 972 543
89 114 955
90 931 866
91 796 414
92 708 270
93 893 755
94 175 956
95 928 757
96 712 401
97 911 968
98 73 240
99 273 9
100 729 595
101 35 166
102 144 36
103 855 718
104 246 872
105 145 125
106 828 875
107 991 591
108 256 913
109 916 785
110 572 373
111 794 708
112 293 607
113 954 807
114 929 743
115 766 280
116 649 291
117 467 677
118 754 655
119 739 882
120 914 788
121 840 785
122 688 415
123 872 383
124 100 253
125 825 737
126 934 881
127 61 122
128 805 306
129 723 293
130 210 984
131 871 845
132 263 916
133 689 176
134 916 696
135 267 798
136 709 162
137 778 748
138 868 711
139 888 705
140 275 849
141 721 780
142 39 209
143 725 784
144 732 339
145 153 957
146 228 685
147 133 309
148 968 772
149 856 654
150 9 152
151 241 951
152 713 376
153 838 377
154 876 764
155 597 423
156 114 992
157 877 851
158 919 703
159 904 766
160 72 31
161 466 393
162 781 784
163 901 846
164 832 916
165 82 123
166 854 803
167 860 788
168 886 728
169 721 227
170 821 575
171 833 775
172 740 699
173 815 870
174 987 925
175 912 794
176 52 131
177 278 957
178 978 690
179 771 292
180 823 346
181 707 335
182 169 906
183 735 870
184 881 748
185 286 992
186 852 889
187 795 680
188 234 986
189 950 871
190 93 187
191 242 902
192 166 240
193 831 436
194 826 244
195 913 959
196 762 783
197 899 829
198 838 765
199 175 829
200 869 785
201 953 964
202 866 944
203 936 737
204 819 800
205 159 845
206 226 948
207 900 582
208 716 261
209 724 340
210 882 786
211 37 115
212 76 158
213 932 900
214 933 720
215 16 220
216 697 613
217 794 288
218 843 826
219 944 819
220 182 953
221 871 819
222 795 277
223 27 151
224 90 898
225 837 658
226 48 57
227 335 937
228 768 713
229 620 617
230 870 923
231 703 796
232 784 302
233 626 928
234 847 721
235 27 180
236 791 822
237 836 834
238 840 350
239 267 903
240 865 981
241 887 753
242 213 883
243 132 331
244 99 100
245 976 899
246 678 226
247 906 926
248 716 733
249 866 711
250 268 882
251 904 726
252 867 615
253 929 807
254 625 238
255 237 947
256 209 895
257 766 806
258 464 628
259 723 817
260 756 859
261 149 12
262 46 127
263 648 763
264 709 1000
265 829 844
266 973 811
267 689 268
268 13 80
269 896 935
270 754 764
271 942 954
272 716 719
273 813 654
274 834 758
275 207 941
276 756 865
277 265 892
278 757 729
279 915 874
280 184 925
281 6 88
282 913 733
283 853 309
284 875 839
285 32 84
286 715 176
287 834 807
288 847 710
289 444 396
290 914 878
291 856 642
292 226 73
293 968 877
294 781 749
295 922 793
296 821 387
297 110 34
298 134 191
299 672 327
300 879 696
301 624 939
302 813 750
303 908 891
304 818 143
305 938 847
306 869 297
307 814 792
308 980 924
309 637 554
310 642 92
311 978 788
312 942 817
313 752 219
314 182 910
315 935 940
316 14 181
317 873 727
318 896 683
319 571 612
320 938 763
321 219 930
322 697 393
323 818 777
324 741 316
325 760 270
326 291 911
327 998 998
328 774 940
329 901 284
330 838 610
331 702 710
332 837 729
333 863 747
334 110 210
335 941 368
336 840 786
337 955 703
338 27 249
339 885 720
340 726 72
341 927 828
342 936 839
343 67 303
344 6 173
345 450 456
346 814 755
347 916 839
348 267 996
349 885 921
350 835 904
351 19 162
352 169 925
353 697 124
354 503 227
355 762 808
356 995 982
357 625 396
358 278 907
359 789 275
360 661 251
361 35 134
362 169 67
363 909 870
364 731 272
365 880 876
366 17 50
367 40 968
368 912 691
369 895 657
370 970 746
371 227 938
372 789 714
373 831 793
374 628 75
375 44 140
376 833 331
377 819 774
378 863 563
379 7 208
380 251 969
381 877 878
382 929 741
383 857 859
384 828 756
385 982 730
386 176 937
387 861 803
388 828 850
389 142 224
390 785 320
391 732 656
392 702 411
393 885 900
394 89 906
395 259 902
396 896 852
397 124 963
398 685 731
399 88 97
400 763 297
401 855 747
402 161 273
403 202 878
404 171 74
405 237 989
406 780 303
407 886 835
408 189 960
409 823 650
410 123 142
411 846 781
412 866 728
413 692 575
414 816 730
415 670 282
416 844 756
417 220 944
418 773 798
419 879 728
420 183 931
421 807 714
422 185 301
423 797 735
424 934 784
425 667 332
426 24 204
427 901 705
428 845 758
429 692 835
430 195 161
431 984 717
432 878 867
433 874 804
434 65 312
435 167 965
436 21 154
437 262 49
438 804 363
439 513 373
440 886 775
441 754 423
442 289 968
443 685 588
444 821 861
445 232 876
446 877 928
447 868 130
448 802 662
449 152 128
450 913 784
451 45 151
452 648 249
453 662 246
454 174 343
455 902 811
456 287 979
457 874 872
458 759 909
459 170 875
460 871 772
461 231 949
462 757 759
463 830 706
464 73 64
465 181 209
466 346 925
467 781 691
468 939 690
469 696 707
470 776 662
471 696 935
472 914 713
473 569 224
474 835 929
475 716 466
476 814 851
477 949 924
478 760 725
479 918 734
480 801 957
481 980 884
482 881 597
483 922 516
484 937 722
485 42 137
486 788 704
487 239 159
488 823 797
489 477 752
490 989 733
491 785 161
492 901 843
493 377 875
494 617 720
495 968 847
496 816 769
497 16 117
498 481 902
499 850 917
500 835 817
501 568 403
502 688 214
503 968 840
504 831 736
505 338 911
506 926 697
507 260 801
508 760 280
509 328 778
510 853 694
511 825 825
512 966 756
513 918 833
514 880 747
515 869 741
516 861 227
517 675 706
518 682 353
519 783 872
520 684 255
521 8 275
522 95 811
523 719 331
524 852 809
525 287 911
526 849 735
527 908 743
528 842 941
529 773 87
530 829 790
531 116 68
532 0 210
533 832 798
534 172 794
535 990 962
536 720 777
537 785 786
538 769 726
539 286 795
540 33 167
541 882 887
542 783 578
543 925 840
544 48 159
545 8 59
546 719 304
547 53 77
548 792 744
549 934 879
550 823 685
551 857 240
552 850 780
553 116 45
554 624 288
555 197 910
556 164 904
557 870 767
558 844 854
559 277 820
560 805 821
561 878 755
562 916 435
563 146 86
564 856 887
565 110 922
566 931 578
567 672 355
568 732 259
569 317 931
570 973 525
571 905 720
572 39 229
573 257 153
574 950 721
575 814 742
576 82 116
577 767 838
578 176 916
579 184 928
580 150 211
581 726 634
582 710 884
583 850 733
584 964 690
585 863 307
586 212 235
587 275 975
588 935 759
589 770 210
590 588 740
591 988 760
592 804 712
593 23 152
594 783 812
595 212 922
596 820 750
597 608 976
598 842 734
599 939 896
600 987 811
601 810 778
602 909 838
603 759 793
604 424 843
605 211 892
606 1 392
607 827 748
608 685 761
609 774 211
610 804 287
611 770 312
612 425 965
613 763 294
614 839 263
615 700 294
616 723 658
617 72 220
618 268 921
619 12 122
620 892 897
621 101 42
622 797 844
623 39 252
624 957 295
625 682 302
626 120 148
627 836 712
628 750 802
629 929 621
630 764 839
631 833 737
632 706 702
633 846 867
634 850 818
635 774 522
636 789 290
637 658 197
638 857 742
639 932 844
640 183 127
641 235 950
642 237 941
643 759 362
644 868 831
645 878 677
646 774 370
647 826 794
648 643 146
649 284 964
650 990 710
651 923 535
652 828 780
653 251 928
654 774 334
655 386 913
656 996 821
657 951 836
658 195 927
659 985 682
660 35 186
661 803 801
662 689 269
663 734 819
664 917 615
665 856 239
666 30 129
667 683 678
668 814 773
669 660 351
670 178 887
671 672 213
672 868 873
673 859 867
674 800 771
675 769 706
676 692 282
677 976 867
678 938 693
679 716 682
680 980 804
681 726 598
682 996 842
683 609 290
684 168 990
685 777 711
686 200 890
687 818 877
688 981 802
689 959 768
690 258 768
691 796 724
692 119 103
693 958 780
694 659 309
695 181 203
696 874 708
697 894 899
698 680 294
699 732 350
700 295 849
701 898 842
702 624 381
703 892 741
704 746 300
705 335 926
706 231 136
707 966 841
708 910 716
709 853 779
710 959 893
711 800 283
712 839 993
713 863 788
714 874 805
715 827 797
716 136 807
717 830 719
718 806 209
719 963 696
720 229 974
721 789 841
722 886 810
723 875 762
724 763 718
725 852 757
726 737 866
727 862 712
728 667 399
729 207 902
730 252 978
731 135 237
732 308 943
733 776 317
734 271 910
735 356 925
736 773 824
737 947 602
738 823 315
739 570 131
740 61 62
741 833 379
742 827 719
743 52 101
744 841 711
745 713 255
746 907 845
747 608 269
748 684 35
749 361 967
750 871 858
751 264 753
752 932 800
753 903 857
754 751 885
755 64 178
756 941 908
757 769 847
758 847 779
759 98 179
760 904 597
761 931 746
762 181 841
763 905 794
764 720 166
765 1000 903
766 951 722
767 805 243
768 244 869
769 938 162
770 707 281
771 915 854
772 851 601
773 746 297
774 992 731
775 864 201
776 406 940
777 775 388
778 877 877
779 851 678
780 820 904
781 44 30
782 871 740
783 622 948
784 732 204
785 55 163
786 850 899
787 885 799
788 274 938
789 967 914
790 178 992
791 129 97
792 814 836
793 233 962
794 847 409
795 39 279
796 760 285
797 963 944
798 764 749
799 835 828
800 899 710
801 700 183
802 2 53
803 156 160
804 815 861
805 868 814
806 61 239
807 802 823
808 863 924
809 312 683
810 80 983
811 322 951
812 848 746
813 817 752
814 816 765
815 132 885
816 0 296
817 544 344
818 84 115
819 732 699
820 202 948
821 876 743
822 895 863
823 855 741
824 909 770
825 225 216
826 698 282
827 62 45
828 326 960
829 63 74
830 916 952
831 733 350
832 843 720
833 741 389
834 15 700
835 755 393
836 784 775
837 284 984
838 906 914
839 735 247
840 699 915
841 876 761
842 362 854
843 687 312
844 703 304
845 828 841
846 640 831
847 799 827
848 940 721
849 856 774
850 119 158
851 641 38
852 783 686
853 811 194
854 871 802
855 886 733
856 938 870
857 50 152
858 852 386
859 663 797
860 784 231
861 947 808
862 199 66
863 874 731
864 24 135
865 505 867
866 950 736
867 451 926
868 333 878
869 792 362
870 738 343
871 260 934
872 739 293
873 302 925
874 920 680
875 727 777
876 737 663
877 878 872
878 944 251
879 792 789
880 765 844
881 777 747
882 656 600
883 924 279
884 84 103
885 63 130
886 988 787
887 531 320
888 67 892
889 932 891
890 299 878
891 396 944
892 70 70
893 353 901
894 699 636
895 820 800
896 139 176
897 63 163
898 660 210
899 976 725
900 806 848
901 664 357
902 887 761
903 907 786
904 254 765
905 888 615
906 758 801
907 897 690
908 831 711
909 850 832
910 764 223
911 975 180
912 963 762
913 888 719
914 364 975
915 801 237
916 818 899
917 896 832
918 784 445
919 66 147
920 797 805
921 961 977
922 776 865
923 448 953
924 833 398
925 845 852
926 783 782
927 906 809
928 528 179
929 936 778
930 850 711
931 968 849
932 391 922
933 343 963
934 26 377
935 305 869
936 999 797
937 824 742
938 794 779
939 34 17
940 884 859
941 58 297
942 3 78
943 867 798
944 825 537
945 875 801
946 750 924
947 859 772
948 928 885
949 805 790
950 728 309
951 47 96
952 846 891
953 665 274
954 42 148
955 867 826
956 76 950
957 912 823
958 836 730
959 722 262
960 876 816
961 36 129
962 812 315
963 835 705
964 126 210
965 986 649
966 100 21
967 582 337
968 64 163
969 903 926
970 833 725
971 714 839
972 842 793
973 763 751
974 778 664
975 881 774
976 874 366
977 801 210
978 736 780
979 883 819
PICKUP_AND_DELIVERY_SECTION
1 0 0 0 0 0 0
2 0 0 0 0 0 38
3 0 0 0 0 0 48
4 0 0 0 0 0 57
5 0 0 0 0 60 0
6 0 0 0 0 0 56
7 0 0 0 0 0 74
8 0 0 0 0 0 41
9 0 0 0 0 95 0
10 0 0 0 0 0 77
11 0 0 0 0 0 95
12 0 0 0 0 0 54
13 0 0 0 0 85 0
14 0 0 0 0 0 66
15 0 0 0 0 0 18
16 0 0 0 0 0 83
17 0 0 0 0 3 0
18 0 0 0 0 0 84
19 0 0 0 0 0 86
20 0 0 0 0 0 96
21 0 0 0 0 69 0
22 0 0 0 0 0 51
23 0 0 0 0 0 100
24 0 0 0 0 0 77
25 0 0 0 0 51 0
26 0 0 0 0 0 96
27 0 0 0 0 0 53
28 0 0 0 0 0 70
29 0 0 0 0 99 0
30 0 0 0 0 0 58
31 0 0 0 0 0 53
32 0 0 0 0 0 87
33 0 0 0 0 12 0
34 0 0 0 0 0 64
35 0 0 0 0 0 62
36 0 0 0 0 0 64
37 0 0 0 0 59 0
38 0 0 0 0 0 64
39 0 0 0 0 0 51
40 0 0 0 0 0 55
41 0 0 0 0 7 0
42 0 0 0 0 0 64
43 0 0 0 0 0 47
44 0 0 0 0 0 5
45 0 0 0 0 20 0
46 0 0 0 0 0 100
47 0 0 0 0 0 75
48 0 0 0 0 0 41
49 0 0 0 0 87 0
50 0 0 0 0 0 72
51 0 0 0 0 0 74
52 0 0 0 0 0 68
53 0 0 0 0 27 0
54 0 0 0 0 0 72
55 0 0 0 0 0 18
56 0 0 0 0 0 25
57 0 0 0 0 68 0
58 0 0 0 0 0 56
59 0 0 0 0 0 14
60 0 0 0 0 0 68
61 0 0 0 0 85 0
62 0 0 0 0 0 83
63 0 0 0 0 0 88
64 0 0 0 0 0 2
65 0 0 0 0 78 0
66 0 0 0 0 0 98
67 0 0 0 0 0 59
68 0 0 0 0 0 99
69 0 0 0 0 88 0
70 0 0 0 0 0 59
71 0 0 0 0 0 9
72 0 0 0 0 0 87
73 0 0 0 0 4 0
74 0 0 0 0 0 62
75 0 0 0 0 0 89
76 0 0 0 0 0 86
77 0 0 0 0 82 0
78 0 0 0 0 0 74
79 0 0 0 0 0 50
80 0 0 0 0 0 5
81 0 0 0 0 72 0
82 0 0 0 0 0 86
83 0 0 0 0 0 20
84 0 0 0 0 0 98
85 0 0 0 0 77 0
86 0 0 0 0 0 71
87 0 0 0 0 0 29
88 0 0 0 0 0 55
89 0 0 0 0 13 0
90 0 0 0 0 0 57
91 0 0 0 0 0 29
92 0 0 0 0 0 24
93 0 0 0 0 82 0
94 0 0 0 0 0 45
95 0 0 0 0 0 55
96 0 0 0 0 0 42
97 0 0 0 0 85 0
98 0 0 0 0 0 69
99 0 0 0 0 0 90
100 0 0 0 0 0 93
101 0 0 0 0 78 0
102 0 0 0 0 0 78
103 0 0 0 0 0 56
104 0 0 0 0 0 39
105 0 0 0 0 56 0
106 0 0 0 0 0 77
107 0 0 0 0 0 53
108 0 0 0 0 0 43
109 0 0 0 0 65 0
110 0 0 0 0 0 10
111 0 0 0 0 0 67
112 0 0 0 0 0 23
113 0 0 0 0 96 0
114 0 0 0 0 0 52
115 0 0 0 0 0 36
116 0 0 0 0 0 10
117 0 0 0 0 18 0
118 0 0 0 0 0 74
119 0 0 0 0 0 73
120 0 0 0 0 0 95
121 0 0 0 0 88 0
122 0 0 0 0 0 47
123 0 0 0 0 0 11
124 0 0 0 0 0 73
125 0 0 0 0 57 0
126 0 0 0 0 0 100
127 0 0 0 0 0 51
128 0 0 0 0 0 34
129 0 0 0 0 50 0
130 0 0 0 0 0 34
131 0 0 0 0 0 87
132 0 0 0 0 0 13
133 0 0 0 0 39 0
134 0 0 0 0 0 71
135 0 0 0 0 0 5
136 0 0 0 0 0 42
137 0 0 0 0 79 0
138 0 0 0 0 0 65
139 0 0 0 0 0 56
140 0 0 0 0 0 15
141 0 0 0 0 76 0
142 0 0 0 0 0 72
143 0 0 0 0 0 56
144 0 0 0 0 0 4
145 0 0 0 0 8 0
146 0 0 0 0 0 28
147 0 0 0 0 0 70
148 0 0 0 0 0 56
149 0 0 0 0 73 0
150 0 0 0 0 0 65
151 0 0 0 0 0 8
152 0 0 0 0 0 41
153 0 0 0 0 12 0
154 0 0 0 0 0 80
155 0 0 0 0 0 36
156 0 0 0 0 0 4
157 0 0 0 0 77 0
158 0 0 0 0 0 69
159 0 0 0 0 0 69
160 0 0 0 0 0 91
161 0 0 0 0 79 0
162 0 0 0 0 0 89
163 0 0 0 0 0 70
164 0 0 0 0 0 79
165 0 0 0 0 89 0
166 0 0 0 0 0 52
167 0 0 0 0 0 83
168 0 0 0 0 0 72
169 0 0 0 0 9 0
170 0 0 0 0 0 95
171 0 0 0 0 0 53
172 0 0 0 0 0 80
173 0 0 0 0 68 0
174 0 0 0 0 0 57
175 0 0 0 0 0 70
176 0 0 0 0 0 94
177 0 0 0 0 33 0
178 0 0 0 0 0 51
179 0 0 0 0 0 3
180 0 0 0 0 0 47
181 0 0 0 0 40 0
182 0 0 0 0 0 21
183 0 0 0 0 0 67
184 0 0 0 0 0 62
185 0 0 0 0 49 0
186 0 0 0 0 0 96
187 0 0 0 0 0 53
188 0 0 0 0 0 41
189 0 0 0 0 88 0
190 0 0 0 0 0 54
191 0 0 0 0 0 4
192 0 0 0 0 0 91
193 0 0 0 0 14 0
194 0 0 0 0 0 8
195 0 0 0 0 0 94
196 0 0 0 0 0 92
197 0 0 0 0 100 0
198 0 0 0 0 0 95
199 0 0 0 0 0 37
200 0 0 0 0 0 52
201 0 0 0 0 81 0
202 0 0 0 0 0 56
203 0 0 0 0 0 66
204 0 0 0 0 0 99
205 0 0 0 0 18 0
206 0 0 0 0 0 12
207 0 0 0 0 0 74
208 0 0 0 0 0 47
209 0 0 0 0 22 0
210 0 0 0 0 0 61
211 0 0 0 0 0 66
212 0 0 0 0 0 91
213 0 0 0 0 77 0
214 0 0 0 0 0 75
215 0 0 0 0 0 63
216 0 0 0 0 0 96
217 0 0 0 0 13 0
218 0 0 0 0 0 63
219 0 0 0 0 0 99
220 0 0 0 0 0 20
221 0 0 0 0 79 0
222 0 0 0 0 0 40
223 0 0 0 0 0 53
224 0 0 0 0 0 14
225 0 0 0 0 71 0
226 0 0 0 0 0 56
227 0 0 0 0 0 43
228 0 0 0 0 0 100
229 0 0 0 0 76 0
230 0 0 0 0 0 73
231 0 0 0 0 0 97
232 0 0 0 0 0 31
233 0 0 0 0 69 0
234 0 0 0 0 0 93
235 0 0 0 0 0 82
236 0 0 0 0 0 80
237 0 0 0 0 89 0
238 0 0 0 0 0 46
239 0 0 0 0 0 7
240 0 0 0 0 0 68
241 0 0 0 0 99 0
242 0 0 0 0 0 18
243 0 0 0 0 0 98
244 0 0 0 0 0 63
245 0 0 0 0 59 0
246 0 0 0 0 0 7
247 0 0 0 0 0 88
248 0 0 0 0 0 84
249 0 0 0 0 52 0
250 0 0 0 0 0 49
251 0 0 0 0 0 65
252 0 0 0 0 0 54
253 0 0 0 0 87 0
254 0 0 0 0 0 16
255 0 0 0 0 0 8
256 0 0 0 0 0 29
257 0 0 0 0 85 0
258 0 0 0 0 0 42
259 0 0 0 0 0 67
260 0 0 0 0 0 71
261 0 0 0 0 94 0
262 0 0 0 0 0 59
263 0 0 0 0 0 64
264 0 0 0 0 0 97
265 0 0 0 0 63 0
266 0 0 0 0 0 86
267 0 0 0 0 0 2
268 0 0 0 0 0 52
269 0 0 0 0 69 0
270 0 0 0 0 0 93
271 0 0 0 0 0 97
272 0 0 0 0 0 80
273 0 0 0 0 73 0
274 0 0 0 0 0 62
275 0 0 0 0 0 11
276 0 0 0 0 0 61
277 0 0 0 0 26 0
278 0 0 0 0 0 51
279 0 0 0 0 0 75
280 0 0 0 0 0 20
281 0 0 0 0 87 0
282 0 0 0 0 0 58
283 0 0 0 0 0 30
284 0 0 0 0 0 68
285 0 0 0 0 70 0
286 0 0 0 0 0 31
287 0 0 0 0 0 79
288 0 0 0 0 0 70
289 0 0 0 0 58 0
290 0 0 0 0 0 67
291 0 0 0 0 0 93
292 0 0 0 0 0 91
293 0 0 0 0 82 0
294 0 0 0 0 0 87
295 0 0 0 0 0 68
296 0 0 0 0 0 41
297 0 0 0 0 75 0
298 0 0 0 0 0 86
299 0 0 0 0 0 21
300 0 0 0 0 0 94
301 0 0 0 0 65 0
302 0 0 0 0 0 96
303 0 0 0 0 0 69
304 0 0 0 0 0 5
305 0 0 0 0 98 0
306 0 0 0 0 0 23
307 0 0 0 0 0 68
308 0 0 0 0 0 71
309 0 0 0 0 74 0
310 0 0 0 0 0 26
311 0 0 0 0 0 83
312 0 0 0 0 0 55
313 0 0 0 0 34 0
314 0 0 0 0 0 43
315 0 0 0 0 0 84
316 0 0 0 0 0 79
317 0 0 0 0 61 0
318 0 0 0 0 0 81
319 0 0 0 0 0 55
320 0 0 0 0 0 62
321 0 0 0 0 24 0
322 0 0 0 0 0 36
323 0 0 0 0 0 73
324 0 0 0 0 0 35
325 0 0 0 0 29 0
326 0 0 0 0 0 10
327 0 0 0 0 0 70
328 0 0 0 0 0 70
329 0 0 0 0 29 0
330 0 0 0 0 0 76
331 0 0 0 0 0 95
332 0 0 0 0 0 92
333 0 0 0 0 56 0
334 0 0 0 0 0 75
335 0 0 0 0 0 38
336 0 0 0 0 0 67
337 0 0 0 0 78 0
338 0 0 0 0 0 97
339 0 0 0 0 0 69
340 0 0 0 0 0 27
341 0 0 0 0 75 0
342 0 0 0 0 0 64
343 0 0 0 0 0 80
344 0 0 0 0 0 53
345 0 0 0 0 51 0
346 0 0 0 0 0 91
347 0 0 0 0 0 52
348 0 0 0 0 0 48
349 0 0 0 0 64 0
350 0 0 0 0 0 100
351 0 0 0 0 0 67
352 0 0 0 0 0 11
353 0 0 0 0 30 0
354 0 0 0 0 0 27
355 0 0 0 0 0 57
356 0 0 0 0 0 75
357 0 0 0 0 17 0
358 0 0 0 0 0 44
359 0 0 0 0 0 50
360 0 0 0 0 0 32
361 0 0 0 0 96 0
362 0 0 0 0 0 58
363 0 0 0 0 0 98
364 0 0 0 0 0 46
365 0 0 0 0 52 0
366 0 0 0 0 0 58
367 0 0 0 0 0 46
368 0 0 0 0 0 100
369 0 0 0 0 57 0
370 0 0 0 0 0 100
371 0 0 0 0 0 47
372 0 0 0 0 0 63
373 0 0 0 0 66 0
374 0 0 0 0 0 37
375 0 0 0 0 0 67
376 0 0 0 0 0 49
377 0 0 0 0 68 0
378 0 0 0 0 0 86
379 0 0 0 0 0 67
380 0 0 0 0 0 17
381 0 0 0 0 91 0
382 0 0 0 0 0 78
383 0 0 0 0 0 63
384 0 0 0 0 0 76
385 0 0 0 0 79 0
386 0 0 0 0 0 32
387 0 0 0 0 0 87
388 0 0 0 0 0 77
389 0 0 0 0 72 0
390 0 0 0 0 0 5
391 0 0 0 0 0 94
392 0 0 0 0 0 13
393 0 0 0 0 68 0
394 0 0 0 0 0 12
395 0 0 0 0 0 24
396 0 0 0 0 0 52
397 0 0 0 0 10 0
398 0 0 0 0 0 93
399 0 0 0 0 0 60
400 0 0 0 0 0 9
401 0 0 0 0 74 0
402 0 0 0 0 0 92
403 0 0 0 0 0 22
404 0 0 0 0 0 59
405 0 0 0 0 44 0
406 0 0 0 0 0 21
407 0 0 0 0 0 92
408 0 0 0 0 0 38
409 0 0 0 0 60 0
410 0 0 0 0 0 64
411 0 0 0 0 0 85
412 0 0 0 0 0 82
413 0 0 0 0 70 0
414 0 0 0 0 0 95
415 0 0 0 0 0 27
416 0 0 0 0 0 60
417 0 0 0 0 30 0
418 0 0 0 0 0 53
419 0 0 0 0 0 80
420 0 0 0 0 0 49
421 0 0 0 0 53 0
422 0 0 0 0 0 76
423 0 0 0 0 0 83
424 0 0 0 0 0 56
425 0 0 0 0 31 0
426 0 0 0 0 0 80
427 0 0 0 0 0 80
428 0 0 0 0 0 62
429 0 0 0 0 64 0
430 0 0 0 0 0 89
431 0 0 0 0 0 85
432 0 0 0 0 0 100
433 0 0 0 0 74 0
434 0 0 0 0 0 65
435 0 0 0 0 0 5
436 0 0 0 0 0 93
437 0 0 0 0 90 0
438 0 0 0 0 0 33
439 0 0 0 0 0 40
440 0 0 0 0 0 85
441 0 0 0 0 29 0
442 0 0 0 0 0 18
443 0 0 0 0 0 66
444 0 0 0 0 0 63
445 0 0 0 0 25 0
446 0 0 0 0 0 64
447 0 0 0 0 0 17
448 0 0 0 0 0 58
449 0 0 0 0 80 0
450 0 0 0 0 0 52
451 0 0 0 0 0 63
452 0 0 0 0 0 29
453 0 0 0 0 18 0
454 0 0 0 0 0 70
455 0 0 0 0 0 75
456 0 0 0 0 0 39
457 0 0 0 0 88 0
458 0 0 0 0 0 71
459 0 0 0 0 0 20
460 0 0 0 0 0 56
461 0 0 0 0 11 0
462 0 0 0 0 0 95
463 0 0 0 0 0 77
464 0 0 0 0 0 90
465 0 0 0 0 87 0
466 0 0 0 0 0 28
467 0 0 0 0 0 52
468 0 0 0 0 0 79
469 0 0 0 0 62 0
470 0 0 0 0 0 53
471 0 0 0 0 0 59
472 0 0 0 0 0 71
473 0 0 0 0 34 0
474 0 0 0 0 0 98
475 0 0 0 0 0 7
476 0 0 0 0 0 62
477 0 0 0 0 88 0
478 0 0 0 0 0 97
479 0 0 0 0 0 53
480 0 0 0 0 0 94
481 0 0 0 0 76 0
482 0 0 0 0 0 75
483 0 0 0 0 0 51
484 0 0 0 0 0 89
485 0 0 0 0 89 0
486 0 0 0 0 0 97
487 0 0 0 0 0 80
488 0 0 0 0 0 57
489 0 0 0 0 16 0
490 0 0 0 0 0 96
491 0 0 0 0 0 33
492 0 0 0 0 0 63
493 0 0 0 0 10 0
494 0 0 0 0 0 73
495 0 0 0 0 0 97
496 0 0 0 0 0 64
497 0 0 0 0 66 0
498 0 0 0 0 0 27
499 0 0 0 0 0 93
500 0 0 0 0 0 63
501 0 0 0 0 10 0
502 0 0 0 0 0 8
503 0 0 0 0 0 52
504 0 0 0 0 0 56
505 0 0 0 0 22 0
506 0 0 0 0 0 97
507 0 0 0 0 0 14
508 0 0 0 0 0 48
509 0 0 0 0 45 0
510 0 0 0 0 0 91
511 0 0 0 0 0 86
512 0 0 0 0 0 63
513 0 0 0 0 70 0
514 0 0 0 0 0 70
515 0 0 0 0 0 67
516 0 0 0 0 0 37
517 0 0 0 0 60 0
518 0 0 0 0 0 16
519 0 0 0 0 0 94
520 0 0 0 0 0 32
521 0 0 0 0 62 0
522 0 0 0 0 0 19
523 0 0 0 0 0 8
524 0 0 0 0 0 52
525 0 0 0 0 24 0
526 0 0 0 0 0 68
527 0 0 0 0 0 76
528 0 0 0 0 0 57
529 0 0 0 0 35 0
530 0 0 0 0 0 94
531 0 0 0 0 0 62
532 0 0 0 0 0 60
533 0 0 0 0 70 0
534 0 0 0 0 0 25
535 0 0 0 0 0 64
536 0 0 0 0 0 72
537 0 0 0 0 95 0
538 0 0 0 0 0 75
539 0 0 0 0 0 11
540 0 0 0 0 0 61
541 0 0 0 0 62 0
542 0 0 0 0 0 89
543 0 0 0 0 0 55
544 0 0 0 0 0 66
545 0 0 0 0 95 0
546 0 0 0 0 0 24
547 0 0 0 0 0 89
548 0 0 0 0 0 79
549 0 0 0 0 75 0
550 0 0 0 0 0 79
551 0 0 0 0 0 15
552 0 0 0 0 0 67
553 0 0 0 0 60 0
554 0 0 0 0 0 50
555 0 0 0 0 0 11
556 0 0 0 0 0 46
557 0 0 0 0 80 0
558 0 0 0 0 0 95
559 0 0 0 0 0 32
560 0 0 0 0 0 96
561 0 0 0 0 66 0
562 0 0 0 0 0 47
563 0 0 0 0 0 76
564 0 0 0 0 0 63
565 0 0 0 0 36 0
566 0 0 0 0 0 85
567 0 0 0 0 0 48
568 0 0 0 0 0 18
569 0 0 0 0 35 0
570 0 0 0 0 0 78
571 0 0 0 0 0 90
572 0 0 0 0 0 88
573 0 0 0 0 67 0
574 0 0 0 0 0 82
575 0 0 0 0 0 52
576 0 0 0 0 0 55
577 0 0 0 0 55 0
578 0 0 0 0 0 3
579 0 0 0 0 0 26
580 0 0 0 0 0 66
581 0 0 0 0 92 0
582 0 0 0 0 0 95
583 0 0 0 0 0 79
584 0 0 0 0 0 57
585 0 0 0 0 31 0
586 0 0 0 0 0 88
587 0 0 0 0 0 24
588 0 0 0 0 0 55
589 0 0 0 0 7 0
590 0 0 0 0 0 52
591 0 0 0 0 0 96
592 0 0 0 0 0 79
593 0 0 0 0 71 0
594 0 0 0 0 0 68
595 0 0 0 0 0 45
596 0 0 0 0 0 76
597 0 0 0 0 55 0
598 0 0 0 0 0 100
599 0 0 0 0 0 69
600 0 0 0 0 0 85
601 0 0 0 0 54 0
602 0 0 0 0 0 88
603 0 0 0 0 0 65
604 0 0 0 0 0 32
605 0 0 0 0 5 0
606 0 0 0 0 0 78
607 0 0 0 0 0 90
608 0 0 0 0 0 92
609 0 0 0 0 48 0
610 0 0 0 0 0 35
611 0 0 0 0 0 34
612 0 0 0 0 0 37
613 0 0 0 0 28 0
614 0 0 0 0 0 11
615 0 0 0 0 0 21
616 0 0 0 0 0 100
617 0 0 0 0 98 0
618 0 0 0 0 0 39
619 0 0 0 0 0 56
620 0 0 0 0 0 75
621 0 0 0 0 53 0
622 0 0 0 0 0 58
623 0 0 0 0 0 56
624 0 0 0 0 0 25
625 0 0 0 0 13 0
626 0 0 0 0 0 84
627 0 0 0 0 0 66
628 0 0 0 0 0 95
629 0 0 0 0 98 0
630 0 0 0 0 0 64
631 0 0 0 0 0 51
632 0 0 0 0 0 79
633 0 0 0 0 52 0
634 0 0 0 0 0 87
635 0 0 0 0 0 99
636 0 0 0 0 0 6
637 0 0 0 0 17 0
638 0 0 0 0 0 54
639 0 0 0 0 0 57
640 0 0 0 0 0 62
641 0 0 0 0 10 0
642 0 0 0 0 0 44
643 0 0 0 0 0 26
644 0 0 0 0 0 96
645 0 0 0 0 61 0
646 0 0 0 0 0 40
647 0 0 0 0 0 96
648 0 0 0 0 0 5
649 0 0 0 0 50 0
650 0 0 0 0 0 83
651 0 0 0 0 0 100
652 0 0 0 0 0 83
653 0 0 0 0 36 0
654 0 0 0 0 0 10
655 0 0 0 0 0 32
656 0 0 0 0 0 59
657 0 0 0 0 73 0
658 0 0 0 0 0 17
659 0 0 0 0 0 52
660 0 0 0 0 0 55
661 0 0 0 0 85 0
662 0 0 0 0 0 27
663 0 0 0 0 0 82
664 0 0 0 0 0 96
665 0 0 0 0 21 0
666 0 0 0 0 0 69
667 0 0 0 0 0 77
668 0 0 0 0 0 93
669 0 0 0 0 20 0
670 0 0 0 0 0 49
671 0 0 0 0 0 2
672 0 0 0 0 0 72
673 0 0 0 0 100 0
674 0 0 0 0 0 76
675 0 0 0 0 0 75
676 0 0 0 0 0 26
677 0 0 0 0 87 0
678 0 0 0 0 0 64
679 0 0 0 0 0 55
680 0 0 0 0 0 99
681 0 0 0 0 61 0
682 0 0 0 0 0 59
683 0 0 0 0 0 25
684 0 0 0 0 0 44
685 0 0 0 0 76 0
686 0 0 0 0 0 31
687 0 0 0 0 0 57
688 0 0 0 0 0 96
689 0 0 0 0 81 0
690 0 0 0 0 0 31
691 0 0 0 0 0 81
692 0 0 0 0 0 61
693 0 0 0 0 90 0
694 0 0 0 0 0 49
695 0 0 0 0 0 87
696 0 0 0 0 0 59
697 0 0 0 0 94 0
698 0 0 0 0 0 14
699 0 0 0 0 0 44
700 0 0 0 0 0 22
701 0 0 0 0 56 0
702 0 0 0 0 0 12
703 0 0 0 0 0 98
704 0 0 0 0 0 47
705 0 0 0 0 30 0
706 0 0 0 0 0 87
707 0 0 0 0 0 72
708 0 0 0 0 0 89
709 0 0 0 0 82 0
710 0 0 0 0 0 88
711 0 0 0 0 0 41
712 0 0 0 0 0 94
713 0 0 0 0 98 0
714 0 0 0 0 0 99
715 0 0 0 0 0 73
716 0 0 0 0 0 13
717 0 0 0 0 51 0
718 0 0 0 0 0 40
719 0 0 0 0 0 77
720 0 0 0 0 0 37
721 0 0 0 0 91 0
722 0 0 0 0 0 80
723 0 0 0 0 0 98
724 0 0 0 0 0 55
725 0 0 0 0 65 0
726 0 0 0 0 0 62
727 0 0 0 0 0 82
728 0 0 0 0 0 45
729 0 0 0 0 49 0
730 0 0 0 0 0 18
731 0 0 0 0 0 60
732 0 0 0 0 0 36
733 0 0 0 0 24 0
734 0 0 0 0 0 29
735 0 0 0 0 0 41
736 0 0 0 0 0 53
737 0 0 0 0 88 0
738 0 0 0 0 0 19
739 0 0 0 0 0 41
740 0 0 0 0 0 82
741 0 0 0 0 8 0
742 0 0 0 0 0 80
743 0 0 0 0 0 84
744 0 0 0 0 0 92
745 0 0 0 0 6 0
746 0 0 0 0 0 53
747 0 0 0 0 0 39
748 0 0 0 0 0 36
749 0 0 0 0 30 0
750 0 0 0 0 0 57
751 0 0 0 0 0 21
752 0 0 0 0 0 96
753 0 0 0 0 53 0
754 0 0 0 0 0 74
755 0 0 0 0 0 81
756 0 0 0 0 0 86
757 0 0 0 0 60 0
758 0 0 0 0 0 76
759 0 0 0 0 0 59
760 0 0 0 0 0 77
761 0 0 0 0 85 0
762 0 0 0 0 0 24
763 0 0 0 0 0 86
764 0 0 0 0 0 20
765 0 0 0 0 74 0
766 0 0 0 0 0 66
767 0 0 0 0 0 6
768 0 0 0 0 0 22
769 0 0 0 0 35 0
770 0 0 0 0 0 3
771 0 0 0 0 0 56
772 0 0 0 0 0 69
773 0 0 0 0 32 0
774 0 0 0 0 0 63
775 0 0 0 0 0 39
776 0 0 0 0 0 31
777 0 0 0 0 4 0
778 0 0 0 0 0 72
779 0 0 0 0 0 51
780 0 0 0 0 0 77
781 0 0 0 0 73 0
782 0 0 0 0 0 80
783 0 0 0 0 0 68
784 0 0 0 0 0 9
785 0 0 0 0 66 0
786 0 0 0 0 0 82
787 0 0 0 0 0 56
788 0 0 0 0 0 39
789 0 0 0 0 63 0
790 0 0 0 0 0 11
791 0 0 0 0 0 87
792 0 0 0 0 0 60
793 0 0 0 0 31 0
794 0 0 0 0 0 29
795 0 0 0 0 0 65
796 0 0 0 0 0 39
797 0 0 0 0 70 0
798 0 0 0 0 0 74
799 0 0 0 0 0 57
800 0 0 0 0 0 51
801 0 0 0 0 28 0
802 0 0 0 0 0 69
803 0 0 0 0 0 87
804 0 0 0 0 0 70
805 0 0 0 0 54 0
806 0 0 0 0 0 91
807 0 0 0 0 0 52
808 0 0 0 0 0 73
809 0 0 0 0 8 0
810 0 0 0 0 0 32
811 0 0 0 0 0 3
812 0 0 0 0 0 52
813 0 0 0 0 88 0
814 0 0 0 0 0 76
815 0 0 0 0 0 27
816 0 0 0 0 0 51
817 0 0 0 0 4 0
818 0 0 0 0 0 69
819 0 0 0 0 0 95
820 0 0 0 0 0 26
821 0 0 0 0 53 0
822 0 0 0 0 0 96
823 0 0 0 0 0 81
824 0 0 0 0 0 63
825 0 0 0 0 78 0
826 0 0 0 0 0 38
827 0 0 0 0 0 93
828 0 0 0 0 0 44
829 0 0 0 0 96 0
830 0 0 0 0 0 92
831 0 0 0 0 0 30
832 0 0 0 0 0 71
833 0 0 0 0 34 0
834 0 0 0 0 0 46
835 0 0 0 0 0 30
836 0 0 0 0 0 93
837 0 0 0 0 49 0
838 0 0 0 0 0 84
839 0 0 0 0 0 20
840 0 0 0 0 0 93
841 0 0 0 0 79 0
842 0 0 0 0 0 21
843 0 0 0 0 0 13
844 0 0 0 0 0 12
845 0 0 0 0 52 0
846 0 0 0 0 0 71
847 0 0 0 0 0 86
848 0 0 0 0 0 54
849 0 0 0 0 86 0
850 0 0 0 0 0 72
851 0 0 0 0 0 26
852 0 0 0 0 0 91
853 0 0 0 0 3 0
854 0 0 0 0 0 82
855 0 0 0 0 0 83
856 0 0 0 0 0 65
857 0 0 0 0 72 0
858 0 0 0 0 0 18
859 0 0 0 0 0 79
860 0 0 0 0 0 24
861 0 0 0 0 97 0
862 0 0 0 0 0 70
863 0 0 0 0 0 84
864 0 0 0 0 0 71
865 0 0 0 0 60 0
866 0 0 0 0 0 73
867 0 0 0 0 0 25
868 0 0 0 0 0 5
869 0 0 0 0 32 0
870 0 0 0 0 0 34
871 0 0 0 0 0 23
872 0 0 0 0 0 33
873 0 0 0 0 38 0
874 0 0 0 0 0 65
875 0 0 0 0 0 77
876 0 0 0 0 0 81
877 0 0 0 0 76 0
878 0 0 0 0 0 3
879 0 0 0 0 0 93
880 0 0 0 0 0 52
881 0 0 0 0 74 0
882 0 0 0 0 0 57
883 0 0 0 0 0 45
884 0 0 0 0 0 72
885 0 0 0 0 82 0
886 0 0 0 0 0 80
887 0 0 0 0 0 21
888 0 0 0 0 0 12
889 0 0 0 0 59 0
890 0 0 0 0 0 40
891 0 0 0 0 0 48
892 0 0 0 0 0 60
893 0 0 0 0 45 0
894 0 0 0 0 0 85
895 0 0 0 0 0 86
896 0 0 0 0 0 94
897 0 0 0 0 98 0
898 0 0 0 0 0 2
899 0 0 0 0 0 70
900 0 0 0 0 0 52
901 0 0 0 0 9 0
902 0 0 0 0 0 94
903 0 0 0 0 0 51
904 0 0 0 0 0 41
905 0 0 0 0 62 0
906 0 0 0 0 0 65
907 0 0 0 0 0 66
908 0 0 0 0 0 59
909 0 0 0 0 65 0
910 0 0 0 0 0 5
911 0 0 0 0 0 32
912 0 0 0 0 0 69
913 0 0 0 0 91 0
914 0 0 0 0 0 1
915 0 0 0 0 0 20
916 0 0 0 0 0 54
917 0 0 0 0 66 0
918 0 0 0 0 0 37
919 0 0 0 0 0 82
920 0 0 0 0 0 60
921 0 0 0 0 51 0
922 0 0 0 0 0 53
923 0 0 0 0 0 5
924 0 0 0 0 0 40
925 0 0 0 0 65 0
926 0 0 0 0 0 83
927 0 0 0 0 0 71
928 0 0 0 0 0 35
929 0 0 0 0 88 0
930 0 0 0 0 0 82
931 0 0 0 0 0 84
932 0 0 0 0 0 46
933 0 0 0 0 27 0
934 0 0 0 0 0 87
935 0 0 0 0 0 6
936 0 0 0 0 0 58
937 0 0 0 0 60 0
938 0 0 0 0 0 74
939 0 0 0 0 0 84
940 0 0 0 0 0 99
941 0 0 0 0 94 0
942 0 0 0 0 0 71
943 0 0 0 0 0 71
944 0 0 0 0 0 87
945 0 0 0 0 57 0
946 0 0 0 0 0 82
947 0 0 0 0 0 57
948 0 0 0 0 0 58
949 0 0 0 0 56 0
950 0 0 0 0 0 34
951 0 0 0 0 0 71
952 0 0 0 0 0 92
953 0 0 0 0 15 0
954 0 0 0 0 0 78
955 0 0 0 0 0 94
956 0 0 0 0 0 15
957 0 0 0 0 68 0
958 0 0 0 0 0 78
959 0 0 0 0 0 6
960 0 0 0 0 0 72
961 0 0 0 0 91 0
962 0 0 0 0 0 14
963 0 0 0 0 0 66
964 0 0 0 0 0 70
965 0 0 0 0 57 0
966 0 0 0 0 0 70
967 0 0 0 0 0 11
968 0 0 0 0 0 80
969 0 0 0 0 97 0
970 0 0 0 0 0 61
971 0 0 0 0 0 67
972 0 0 0 0 0 74
973 0 0 0 0 88 0
974 0 0 0 0 0 87
975 0 0 0 0 0 96
976 0 0 0 0 0 50
977 0 0 0 0 24 0
978 0 0 0 0 0 91
979 0 0 0 0 0 84
